(set-logic QF_S)
(declare-fun var0 () String)
(declare-fun var1 () Int)
(declare-fun var2 () Bool)
(declare-fun var3 () String)
(declare-fun var4 () Int)
(declare-fun var5 () Bool)
(declare-fun var6 () String)
(declare-fun var7 () Int)
(declare-fun var8 () Bool)
(assert (>= (str.len (str.substr var0 var1 var1)) (str.len var0)))
(assert (not var2))
(assert (not (> var4 var4)))
(assert (str.suffixof (str.substr (str.at var6 var4) (str.indexof "X&%g^hzBUJ" var6 var4) (str.len var3)) (str.replace (str.replace var0 var3 "B*c19D2=^z") (str.replace var0 var6 "MF2z@->C-{") (str.at var6 var1))))
(check-sat)